N = 44;
MinK = 7;
Capacity = 100;

X = array1d(0..44, [61, 95, 45, 15, 39, 55, 29, 87, 75, 65, 73, 17, 39, 75, 49, 85, 89, 89, 79, 45, 93, 49, 63, 93, 39, 89, 47, 29, 13, 33, 63, 41, 67, 41, 49, 57, 45, 83, 81, 57, 93, 17, 89, 7, 35]);
Y = array1d(0..44, [99, 7, 87, 47, 75, 23, 71, 79, 63, 61, 35, 35, 99, 77, 37, 31, 71, 43, 81, 5, 69, 69, 25, 33, 45, 33, 77, 19, 65, 9, 9, 13, 75, 27, 77, 81, 5, 7, 61, 81, 89, 13, 27, 25, 35]);

Demands = [14, 1, 16, 23, 12, 6, 5, 1, 13, 20, 14, 18, 7, 8, 21, 8, 24, 20, 19, 13, 3, 26, 17, 22, 8, 16, 20, 12, 22, 20, 12, 14, 25, 17, 19, 20, 15, 2, 9, 10, 6, 11, 21, 24];
